c instance by G2
c solution = 010110110001001
c Known solution cost is 84
p cnf 15 15
w 0 6 8 7 9 7 1 8 7 8 8 4 0 3 8
-3 -8 -11 0
-1 13 -5 0
-5 9 15 0
-4 14 12 0
10 9 7 0
-15 -10 3 0
13 -3 11 0
-13 12 15 0
-4 -8 2 0
10 -3 -4 0
12 3 -5 0
-11 15 4 0
-12 8 3 0
12 -5 -11 0
9 -5 -11 0
